23 23
3 3
5 4
6 7
2 9
9 3
10 2
1 2
8 2
3 5
9 3
3 4
10 2
4 6
5 6
6 9
10 8
5 6
5 1
1 7
10 2
4 1
7 1
2 6
15 10 72
13 13 59
20 15 90
20 12 99
14 13 77
20 12 60
18 15 74
11 20 84
12 10 92
13 17 71
19 20 91
18 15 97
20 9 94
11 17 70
18 15 56
10 16 75
17 9 87
15 11 79
16 14 61
12 13 79
16 14 67
13 20 91
16 12 94
